\ Model firm
\ LP format - for model browsing. Use MPS format to capture full model detail.
Maximize
  8.666766357414609 output - 5 emission + [ - 2.2 output ^2
   + 4 output * emission - 2 emission ^2 ] / 2 
Subject To
 R0: - output + emission <= 0
Bounds
End
